(set-logic HORN)
(declare-fun state (Int (Array Int Int) (Array Int Int) (Array Int Int) (Array Int Int) Int Int (Array Int Int) (Array Int Int) Int Int Int Int Int Int Int Int Int Int Bool Int Int Int Int Int Int Int Int Int Bool Bool Bool Bool Bool (Array Int Int) Bool) Bool)
(assert (forall ((|A_18| Int) (|B_18| (Array Int Int)) (|C_18| (Array Int Int)) (|D_18| (Array Int Int)) (|E_18| (Array Int Int)) (|F_18| Int) (|G_18| Int) (|H_18| (Array Int Int)) (|I_18| (Array Int Int)) (|J_18| Int) (|K_18| Int) (|L_18| Int) (|M_18| Int) (|N_18| Int) (|O_18| Int) (|P_18| Int) (|Q_18| Int) (|R_18| Int) (|S_18| Int) (|T_18| Bool) (|U_18| Int) (|V_18| Int) (|W_18| Int) (|X_18| Int) (|Y_18| Int) (|Z_18| Int) (|A1_18| Int) (|B1_18| Int) (|C1_18| Int) (|E1_10| Bool) (|.loc.5| Bool) (|.loc.6| Bool) (|.loc.7| Bool) (|.loc.8| Bool) (|E1_0| (Array Int Int)) (|E1_4| Bool) (|.x.536| Int) (|.x.534| (Array Int Int)) (|.x.532| Int) (|.x.530| (Array Int Int)) (|.x.526| Int) (|.x.528| (Array Int Int)) (|.x.527| (Array Int Int)) (|D1_18| Bool) (|.x.538| Int) (|.x.539| Int) (|.x.542| Int) (|.x.546| Int) (|.x.548| Int) (|.x.552| Int) (|.loc.10| Bool) (|.x.550| Int) (|.x.540| Int) (|.x.551| Int) (|.x.553| Int) (|.loc.12| Bool) (|.loc.9| Bool) (|.loc.11| Bool) (|.x.544| Int) (|.x.543| Int) (|.x.549| Int) (|.x.545| Bool) (|.x.541| Int) (|.x.529| (Array Int Int)) (|.x.554| Int) (|.x.537| Int) (|.x.547| Int) (|.x.535| Int) (|.x.531| Int) (|.x.533| (Array Int Int)) (|.xtv.1| (Array Int Int)) (|.xtv.2| Bool)) (=> (and (and (and (and .loc.5 (not .loc.6)) (not .loc.7)) (not .loc.8)) (and (and (and (and (and (= D_18 E_18) (not E1_10)) (= F_18 G_18)) (= J_18 K_18)) (= H_18 I_18)) (= B_18 C_18))) (state |A_18| |B_18| |C_18| |D_18| |E_18| |F_18| |G_18| |H_18| |I_18| |J_18| |K_18| |L_18| |M_18| |N_18| |O_18| |P_18| |Q_18| |R_18| |S_18| |T_18| |U_18| |V_18| |W_18| |X_18| |Y_18| |Z_18| |A1_18| |B1_18| |C1_18| |E1_10| |.loc.5| |.loc.6| |.loc.7| |.loc.8| |E1_0| |E1_4|))))
(assert (forall ((|A_18| Int) (|B_18| (Array Int Int)) (|C_18| (Array Int Int)) (|D_18| (Array Int Int)) (|E_18| (Array Int Int)) (|F_18| Int) (|G_18| Int) (|H_18| (Array Int Int)) (|I_18| (Array Int Int)) (|J_18| Int) (|K_18| Int) (|L_18| Int) (|M_18| Int) (|N_18| Int) (|O_18| Int) (|P_18| Int) (|Q_18| Int) (|R_18| Int) (|S_18| Int) (|T_18| Bool) (|U_18| Int) (|V_18| Int) (|W_18| Int) (|X_18| Int) (|Y_18| Int) (|Z_18| Int) (|A1_18| Int) (|B1_18| Int) (|C1_18| Int) (|E1_10| Bool) (|.loc.5| Bool) (|.loc.6| Bool) (|.loc.7| Bool) (|.loc.8| Bool) (|E1_0| (Array Int Int)) (|E1_4| Bool) (|.x.536| Int) (|.x.534| (Array Int Int)) (|.x.532| Int) (|.x.530| (Array Int Int)) (|.x.526| Int) (|.x.528| (Array Int Int)) (|.x.527| (Array Int Int)) (|D1_18| Bool) (|.x.538| Int) (|.x.539| Int) (|.x.542| Int) (|.x.546| Int) (|.x.548| Int) (|.x.552| Int) (|.loc.10| Bool) (|.x.550| Int) (|.x.540| Int) (|.x.551| Int) (|.x.553| Int) (|.loc.12| Bool) (|.loc.9| Bool) (|.loc.11| Bool) (|.x.544| Int) (|.x.543| Int) (|.x.549| Int) (|.x.545| Bool) (|.x.541| Int) (|.x.529| (Array Int Int)) (|.x.554| Int) (|.x.537| Int) (|.x.547| Int) (|.x.535| Int) (|.x.531| Int) (|.x.533| (Array Int Int)) (|.xtv.1| (Array Int Int)) (|.xtv.2| Bool)) (=> (and (state |A_18| |B_18| |C_18| |D_18| |E_18| |F_18| |G_18| |H_18| |I_18| |J_18| |K_18| |L_18| |M_18| |N_18| |O_18| |P_18| |Q_18| |R_18| |S_18| |T_18| |U_18| |V_18| |W_18| |X_18| |Y_18| |Z_18| |A1_18| |B1_18| |C1_18| |E1_10| |.loc.5| |.loc.6| |.loc.7| |.loc.8| |E1_0| |E1_4|) (let ((.def_46 (not .loc.6))) (let ((.def_48 (not .loc.7))) (let ((.def_50 (not .loc.8))) (let ((.def_82 (= B_18 .x.527))) (let ((.def_86 (= M_18 .x.538))) (let ((.def_89 (= N_18 .x.539))) (let ((.def_92 (= Q_18 .x.542))) (let ((.def_95 (= U_18 .x.546))) (let ((.def_98 (= W_18 .x.548))) (let ((.def_101 (= A1_18 .x.552))) (let ((.def_103 (not .loc.5))) (let ((.def_115 (= E1_10 D1_18))) (let ((.def_124 (= O_18 0))) (let ((.def_127 (and .def_89 (and .def_82 .def_86)))) (let ((.def_131 (and .def_101 (and .def_98 (and .def_95 (and .def_92 .def_127)))))) (let ((.def_136 (not .loc.10))) (let ((.def_142 (= Y_18 .x.550))) (let ((.def_144 (= O_18 .x.540))) (let ((.def_147 (= Z_18 .x.551))) (let ((.def_150 (= B1_18 .x.553))) (let ((.def_155 (not .loc.9))) (let ((.def_158 (not .loc.11))) (let ((.def_169 (select D_18 N_18))) (let ((.def_174 (select D_18 A1_18))) (let ((.def_177 (<= P_18 R_18))) (let ((.def_192 (not .loc.12))) (let ((.def_197 (= S_18 .x.544))) (let ((.def_199 (= R_18 .x.543))) (let ((.def_207 (and .def_127 .def_144))) (let ((.def_208 (and .def_92 .def_207))) (let ((.def_244 (and E1_10 .def_82))) (let ((.def_250 (and .def_197 (and .def_199 (and .def_92 (and .def_144 (and .def_89 (and .def_86 .def_244)))))))) (let ((.def_271 (and .def_98 (and .def_95 (and .def_197 (and .def_199 .def_208)))))) (let ((.def_275 (and .def_150 (and .def_101 (and .def_147 (and .def_142 .def_271)))))) (let ((.def_288 (= X_18 .x.549))) (let ((.def_290 (= T_18 .x.545))) (let ((.def_298 (and .loc.9 (and .def_46 (and .def_103 (and .loc.7 .def_275)))))) (let ((.def_326 (not (<= 100000 P_18)))) (let ((.def_375 (= P_18 .x.541))) (let ((.def_376 (= D_18 .x.529))) (let ((.def_379 (= C1_18 .x.554))) (let ((.def_421 (and .def_379 (and .def_150 (and .def_101 (and .def_147 (and .def_142 (and .def_288 (and .def_98 (and .def_95 (and .def_290 (and .def_197 (and .def_199 (and .def_92 (and .def_375 (and .def_144 (and .def_89 (and .def_86 (and .def_82 .def_376))))))))))))))))))) (let ((.def_449 (and .def_379 (and .def_150 (and .def_101 (and .def_147 (and .def_142 (and .def_288 (and .def_98 (and .def_95 (and .def_290 (and .def_197 (and .def_199 (and .def_92 (and .def_375 (and .def_144 (and .def_89 (and .def_86 (and .def_244 .def_376))))))))))))))))))) (let ((.def_470 (<= 100000 V_18))) (let ((.def_567 (store E1_0 .x.539 1))) (and (and (= K_18 .x.536) (and (= I_18 .x.534) (and (= G_18 .x.532) (and (= E_18 .x.530) (and (= A_18 .x.526) (= C_18 .x.528)))))) (or (and (or (and (or (or (or (or (or (and (or (or (or (or (and (or (or (or (or (and (or (and (or (and (or (and (and (and (and (and (and (and (and .def_82 D1_18) .def_86) .def_89) .def_92) .def_95) .def_98) .def_101) .def_103) (and (or E1_10 (and (= .x.548 0) (= .x.527 (store (store B_18 N_18 0) A1_18 0)))) (and (and .loc.5 (or D1_18 (= .x.542 .x.548))) .def_115))) (and (and .def_48 (and .loc.8 .def_46)) .loc.10)) (and (or E1_10 .def_124) (and .def_50 (and (and .def_115 (and .loc.7 (and .loc.6 (and .loc.5 .def_131)))) .def_136)))) (and (and (and (and (and (and .def_142 .def_144) .def_147) .def_150) .loc.12) .def_155) .def_158)) (and (or E1_10 (and (= .x.550 .x.540) (and (= .x.550 (ite (= .x.551 .x.553) 1 0)) (and (= .x.551 (select .def_169 (+ (* 4 R_18) U_18))) (and (= .x.553 (select .def_174 (+ M_18 (* 4 R_18)))) (not .def_177)))))) (and (and .def_50 (and .def_115 (and .loc.11 (and .loc.10 (and .loc.9 (and .def_103 (and .loc.7 (and .loc.6 .def_131)))))))) .def_192))) (and .def_197 .def_199)) (and (or D1_18 (= (+ R_18 (* (- 1) .x.543)) (- 1))) (and .def_192 (and .def_50 (and .def_115 (and .def_155 (and .loc.11 (and .loc.10 (and .def_48 (and .def_46 (and .def_103 (and .def_101 (and .def_142 (and .def_98 (and .def_95 .def_208))))))))))))))) (and (or E1_10 (= .x.543 0)) (and .def_192 (and .def_50 (and .def_115 (and .def_155 (and .loc.11 (and .loc.10 (and .def_46 (and .loc.7 (and .loc.5 (and .def_150 (and .def_101 (and .def_147 (and .def_142 (and .def_98 (and .def_95 (and .def_197 .def_208)))))))))))))))))) (and .def_50 (and .def_136 (and .def_115 (and .def_158 (and .loc.12 (and .loc.9 (and .def_103 (and .loc.7 (and .loc.6 (and .def_150 (and .def_101 (and .def_147 (and .def_142 (and .def_98 (and .def_95 .def_250)))))))))))))))) (and (or E1_10 .def_177) (and .def_50 (and .def_136 (and .def_115 (and .def_158 (and .loc.12 (and .loc.9 (and .def_103 (and .loc.7 (and .loc.6 .def_275))))))))))) (and .def_288 .def_290)) (and (or E1_10 (not T_18)) (and .def_192 (and .def_50 (and .def_136 (and .def_115 (and .loc.11 .def_298))))))) (and .def_192 (and .def_50 (and .def_136 (and .def_115 (and .loc.11 (and .loc.9 (and .def_48 (and .loc.6 (and .loc.5 (and .def_150 (and .def_101 (and .def_147 (and .def_142 (and .def_288 (and .def_98 (and .def_95 (and .def_250 .def_290)))))))))))))))))) (and (or E1_10 (= E1_4 .def_326)) (and (or D1_18 (and (= .x.549 (select (select .x.529 .x.539) (+ .x.546 (* 4 .x.541)))) (and E1_4 (= .x.545 (not (= .x.549 0)))))) (and .def_192 (and .def_50 (and .def_136 (and .def_115 (and .def_155 (and .loc.11 (and .def_48 (and .loc.6 (and .loc.5 .def_275)))))))))))) (and (or E1_10 (= .x.545 .def_326)) (and (or D1_18 (not .x.545)) (and .def_192 (and .def_50 (and .def_136 (and .def_115 (and .def_155 (and .loc.11 (and .def_48 (and .loc.6 (and .loc.5 (and .def_150 (and .def_101 (and .def_147 (and .def_142 (and .def_271 .def_288))))))))))))))))) (and (and .def_375 .def_376) .def_379)) (and (or E1_10 (and (= .x.529 (store D_18 A1_18 (store .def_174 (+ M_18 (* 4 P_18)) (select .def_169 (+ (* 4 P_18) U_18))))) (and T_18 (= (+ P_18 (* (- 1) .x.541)) (- 1))))) (and .def_192 (and .def_50 (and .def_115 (and .def_158 (and .loc.10 .def_298))))))) (and (or E1_10 (not .def_124)) (and .def_192 (and .def_50 (and .def_136 (and .def_115 (and .def_158 (and .def_155 (and .loc.7 (and .loc.6 (and .loc.5 .def_421))))))))))) (and .def_192 (and .def_136 (and .def_115 (and .def_158 (and .def_155 (and .def_48 (and .def_46 (and .def_103 (and .loc.8 .def_449)))))))))) (and .def_192 (and .def_50 (and .def_115 (and .def_158 (and .loc.10 (and .loc.9 (and .def_48 (and .def_103 (and .loc.6 .def_449)))))))))) (and (or E1_10 .def_470) (and .def_192 (and .def_50 (and .def_115 (and .def_158 (and .loc.10 (and .loc.9 (and .def_48 (and .def_103 (and .loc.6 .def_421))))))))))) (and (= L_18 .x.537) (= V_18 .x.547))) (and (or E1_10 (and (= .x.529 (store D_18 N_18 (store .def_169 (+ U_18 (* 4 V_18)) L_18))) (and (= (+ V_18 (* (- 1) .x.547)) (- 1)) (and (<= (- 2147483648) L_18) (and (<= L_18 2147483647) (not .def_470)))))) (and .def_192 (and .def_50 (and .def_115 (and .def_158 (and .def_155 (and .loc.10 (and .def_48 (and .def_103 (and .loc.6 (and .def_379 (and .def_150 (and .def_101 (and .def_147 (and .def_142 (and .def_288 (and .def_98 (and .def_95 (and .def_290 (and .def_197 (and .def_199 (and .def_92 (and .def_207 .def_375)))))))))))))))))))))))) (and (= J_18 .x.535) (and (= F_18 .x.531) (= H_18 .x.533)))) (and (or E1_10 (and (and (= .x.535 0) (= .x.531 0)) (= E1_0 (store B_18 0 0)))) (and (or D1_18 (and (and (and (and (and (and (and (and (and (and (and (not (<= .x.526 .x.552)) (not (<= .x.526 .x.539))) (not (= .x.539 0))) (= .x.541 0)) (= .x.546 0)) (= .x.547 0)) (= .x.538 0)) (not (= .x.552 0))) (= (select .def_567 .x.552) 0)) (= (select E1_0 .x.539) 0)) (= .x.533 (store (store H_18 .x.539 400000) .x.552 400000))) (= .x.527 (store .def_567 .x.552 1)))) (and .def_192 (and .def_50 (and .def_115 (and .def_158 (and .def_155 (and .loc.10 (and .def_48 (and .def_46 (and .loc.5 (and .def_142 (and .def_92 (and .def_144 .def_376)))))))))))))))))))))))))))))))))))))))))))))))))))))))))))))) (state |.x.526| |.x.527| |.x.528| |.x.529| |.x.530| |.x.531| |.x.532| |.x.533| |.x.534| |.x.535| |.x.536| |.x.537| |.x.538| |.x.539| |.x.540| |.x.541| |.x.542| |.x.543| |.x.544| |.x.545| |.x.546| |.x.547| |.x.548| |.x.549| |.x.550| |.x.551| |.x.552| |.x.553| |.x.554| |D1_18| |.loc.9| |.loc.10| |.loc.11| |.loc.12| |.xtv.1| |.xtv.2|))))
(assert (forall ((|A_18| Int) (|B_18| (Array Int Int)) (|C_18| (Array Int Int)) (|D_18| (Array Int Int)) (|E_18| (Array Int Int)) (|F_18| Int) (|G_18| Int) (|H_18| (Array Int Int)) (|I_18| (Array Int Int)) (|J_18| Int) (|K_18| Int) (|L_18| Int) (|M_18| Int) (|N_18| Int) (|O_18| Int) (|P_18| Int) (|Q_18| Int) (|R_18| Int) (|S_18| Int) (|T_18| Bool) (|U_18| Int) (|V_18| Int) (|W_18| Int) (|X_18| Int) (|Y_18| Int) (|Z_18| Int) (|A1_18| Int) (|B1_18| Int) (|C1_18| Int) (|E1_10| Bool) (|.loc.5| Bool) (|.loc.6| Bool) (|.loc.7| Bool) (|.loc.8| Bool) (|E1_0| (Array Int Int)) (|E1_4| Bool) (|.x.536| Int) (|.x.534| (Array Int Int)) (|.x.532| Int) (|.x.530| (Array Int Int)) (|.x.526| Int) (|.x.528| (Array Int Int)) (|.x.527| (Array Int Int)) (|D1_18| Bool) (|.x.538| Int) (|.x.539| Int) (|.x.542| Int) (|.x.546| Int) (|.x.548| Int) (|.x.552| Int) (|.loc.10| Bool) (|.x.550| Int) (|.x.540| Int) (|.x.551| Int) (|.x.553| Int) (|.loc.12| Bool) (|.loc.9| Bool) (|.loc.11| Bool) (|.x.544| Int) (|.x.543| Int) (|.x.549| Int) (|.x.545| Bool) (|.x.541| Int) (|.x.529| (Array Int Int)) (|.x.554| Int) (|.x.537| Int) (|.x.547| Int) (|.x.535| Int) (|.x.531| Int) (|.x.533| (Array Int Int)) (|.xtv.1| (Array Int Int)) (|.xtv.2| Bool)) (=> (state |A_18| |B_18| |C_18| |D_18| |E_18| |F_18| |G_18| |H_18| |I_18| |J_18| |K_18| |L_18| |M_18| |N_18| |O_18| |P_18| |Q_18| |R_18| |S_18| |T_18| |U_18| |V_18| |W_18| |X_18| |Y_18| |Z_18| |A1_18| |B1_18| |C1_18| |E1_10| |.loc.5| |.loc.6| |.loc.7| |.loc.8| |E1_0| |E1_4|) (not (and E1_10 (and .loc.8 (and (not .loc.7) (and .loc.6 (not .loc.5)))))))))
(check-sat)
